Route #1: 864 124 314 346 944 753 754 808 500 959 420
Route #2: 234 206 706 248 501 763 5 760 714
Route #3: 929 261 695 386 660 605 607 453 686 344 859
Route #4: 866 264 612 762 884 636 667 654 317
Route #5: 927 273 316 74 883 588 514 85 291
Route #6: 477 727 275 542 792 771 393 983 384 214
Route #7: 989 556 481 894 472 352 216 603 81 329 567
Route #8: 518 545 315 146 105 931 537 201 973 178
Route #9: 93 389 402 87 11 67 296 795
Route #10: 850 82 932 327 240 225 886 368
Route #11: 581 311 855 679 17 734 745
Route #12: 451 437 547 484 967 647 161 868 374 65 610 427
Route #13: 407 244 464 976 349 126 838 922 911 744 735
Route #14: 817 77 613 449 414 803 86 302
Route #15: 176 793 230 779 871 991 252 101 659 59 149
Distance: 35691
